NAME : in_house_7_3
TYPE : TSP
DIMENSION : 7
EDGE_WEIGHT_TYPE : EXPLICIT
EDGE_WEIGHT_FORMAT : UPPER_ROW
COMMENT : INVERSION_SHIFT=1
EDGE_WEIGHT_SECTION
35
44
10
38
7
9
16
43
28
30
30
39
29
14
16
7
14
34
15
34
16
